* ENCODING=ISO-8859-1
NAME          CPLEX
ROWS
 N  obj1    
 G  c1      
 G  c2      
 G  c3      
 G  c4      
 G  c5      
 G  c6      
 G  c7      
 G  c8      
 G  c9      
 G  c10     
 G  c11     
 G  c12     
 G  c13     
 G  c14     
 G  c15     
 G  c16     
 G  c17     
 G  c18     
 G  c19     
 G  c20     
 G  c21     
 G  c22     
 G  c23     
 G  c24     
 G  c25     
 G  c26     
 G  c27     
 G  c28     
 G  c29     
 G  c30     
COLUMNS
    MARK0000  'MARKER'                 'INTORG'
    x1        obj1                            1
    x1        c7                            276
    x1        c24                           219
    x2        obj1                            1
    x3        obj1                            1
    x3        c3                            900
    x3        c18                           310
    x3        c19                           647
    x4        obj1                            1
    x4        c15                           532
    x4        c21                           420
    x5        obj1                            1
    x5        c4                            956
    x5        c5                            145
    x5        c9                            954
    x5        c25                           230
    x5        c26                           353
    x6        obj1                            1
    x6        c5                            776
    x6        c8                            658
    x6        c11                           242
    x6        c21                           118
    x7        obj1                            1
    x7        c4                            153
    x7        c6                            911
    x7        c10                           278
    x8        obj1                            1
    x8        c1                            413
    x8        c10                           919
    x8        c28                           336
    x9        obj1                            1
    x9        c10                           715
    x9        c19                           515
    x9        c28                           902
    x10       obj1                            1
    x10       c6                            815
    x10       c7                            569
    x10       c23                           605
    x11       obj1                            1
    x11       c4                            412
    x11       c20                           938
    x12       obj1                            1
    x12       c2                            542
    x12       c15                           209
    x12       c25                           944
    x12       c27                           920
    x13       obj1                            1
    x14       obj1                            1
    x14       c15                           753
    x14       c21                           640
    x14       c24                           645
    x14       c27                           973
    x14       c28                           384
    x14       c29                           382
    x15       obj1                            1
    x15       c10                           226
    x15       c18                           446
    x15       c29                           431
    x16       obj1                            1
    x16       c27                           632
    x17       obj1                            1
    x17       c7                            863
    x17       c21                           419
    x18       obj1                            1
    x18       c1                            283
    x18       c11                           779
    x18       c29                           479
    x19       obj1                            1
    x19       c4                            308
    x19       c5                            823
    x19       c6                            814
    x19       c7                            727
    x19       c26                           153
    x19       c29                           580
    x19       c30                           137
    x20       obj1                            1
    x20       c4                            912
    x20       c5                            223
    x20       c14                           578
    x20       c24                           409
    x20       c30                           914
    x21       obj1                            1
    x21       c14                           598
    x21       c25                           416
    x21       c26                           467
    x21       c28                           705
    x22       obj1                            1
    x22       c5                            681
    x22       c18                           135
    x22       c24                           806
    x23       obj1                            1
    x23       c6                            562
    x23       c9                            929
    x24       obj1                            1
    x24       c3                            759
    x25       obj1                            1
    x25       c2                            940
    x25       c3                            861
    x25       c7                            748
    x25       c11                           913
    x25       c17                           769
    x25       c19                           931
    x25       c22                           464
    x26       obj1                            1
    x26       c7                            331
    x26       c14                           666
    x27       obj1                            1
    x27       c5                            328
    x27       c24                           222
    x27       c26                           989
    x27       c28                           802
    x28       obj1                            1
    x28       c28                           568
    x28       c30                           554
    x29       obj1                            1
    x29       c6                            629
    x29       c19                           633
    x29       c26                           839
    x30       obj1                            1
    x30       c20                           310
    x30       c21                           108
    x30       c22                           872
    x31       obj1                            1
    x31       c3                            686
    x31       c17                           204
    x31       c22                           347
    x31       c23                           320
    x32       obj1                            1
    x32       c6                            209
    x32       c8                            720
    x32       c10                           132
    x32       c13                           312
    x33       obj1                            1
    x33       c3                            422
    x33       c14                           102
    x33       c26                           226
    x34       obj1                            1
    x34       c5                            589
    x34       c13                           913
    x34       c21                           614
    x34       c28                           335
    x35       obj1                            1
    x35       c26                           366
    x36       obj1                            1
    x36       c10                           660
    x36       c13                           803
    x36       c23                           658
    x37       obj1                            1
    x37       c5                            646
    x37       c12                           951
    x37       c22                           380
    x37       c26                           242
    x38       obj1                            1
    x39       obj1                            1
    x39       c6                            507
    x39       c14                           246
    x39       c24                           544
    x40       obj1                            1
    x40       c20                           567
    x41       obj1                            1
    x41       c26                           389
    x42       obj1                            1
    x42       c13                           965
    x42       c19                           740
    x42       c22                           445
    x42       c27                           274
    x42       c28                           260
    x42       c30                           762
    x43       obj1                            1
    x43       c2                            445
    x43       c12                           340
    x43       c13                           546
    x43       c23                           275
    x43       c24                           317
    x43       c27                           583
    x43       c29                           587
    x44       obj1                            1
    x44       c11                           879
    x44       c13                           734
    x45       obj1                            1
    x45       c3                            734
    x45       c12                           660
    x45       c16                           157
    x45       c17                           111
    x45       c23                           453
    x46       obj1                            1
    x46       c8                            239
    x46       c16                           261
    x46       c22                           886
    x46       c23                           703
    x46       c27                           763
    x47       obj1                            1
    x47       c3                            446
    x47       c7                            369
    x47       c17                           563
    x47       c19                           684
    x48       obj1                            1
    x48       c9                            242
    x48       c17                           714
    x49       obj1                            1
    x49       c17                           617
    x50       obj1                            1
    x50       c25                           175
    x50       c27                           175
    x51       obj1                            1
    x51       c9                            330
    x52       obj1                            1
    x52       c17                           718
    x52       c19                           499
    x53       obj1                            1
    x53       c4                            464
    x53       c6                            589
    x53       c16                           945
    x53       c22                           913
    x53       c27                           439
    x54       obj1                            1
    x54       c8                            759
    x55       obj1                            1
    x55       c11                           277
    x55       c14                           699
    x55       c20                           709
    x55       c30                           776
    x56       obj1                            1
    x56       c4                            317
    x56       c20                           195
    x56       c22                           235
    x56       c25                           204
    x57       obj1                            1
    x57       c1                            127
    x57       c6                            213
    x57       c9                            805
    x58       obj1                            1
    x58       c7                            109
    x58       c8                            635
    x58       c22                           949
    x58       c23                           624
    x59       obj1                            1
    x59       c3                            854
    x59       c4                            433
    x59       c5                            287
    x60       obj1                            1
    x60       c13                           226
    x60       c25                           795
    MARK0001  'MARKER'                 'INTEND'
RHS
    rhs       c1                            412
    rhs       c2                            964
    rhs       c3                           2831
    rhs       c4                           1978
    rhs       c5                           2249
    rhs       c6                           2625
    rhs       c7                           1996
    rhs       c8                           1506
    rhs       c9                           1630
    rhs       c10                          1465
    rhs       c11                          1545
    rhs       c12                           976
    rhs       c13                          2250
    rhs       c14                          1445
    rhs       c15                           747
    rhs       c16                           682
    rhs       c17                          1848
    rhs       c18                           446
    rhs       c19                          2325
    rhs       c20                          1360
    rhs       c21                          1160
    rhs       c22                          2746
    rhs       c23                          1819
    rhs       c24                          1581
    rhs       c25                          1382
    rhs       c26                          2012
    rhs       c27                          2380
    rhs       c28                          2146
    rhs       c29                          1230
    rhs       c30                          1572
BOUNDS
 LI bnd       x1        0
 LI bnd       x2        0
 LI bnd       x3        0
 LI bnd       x4        0
 LI bnd       x5        0
 LI bnd       x6        0
 LI bnd       x7        0
 LI bnd       x8        0
 LI bnd       x9        0
 LI bnd       x10       0
 LI bnd       x11       0
 LI bnd       x12       0
 LI bnd       x13       0
 LI bnd       x14       0
 LI bnd       x15       0
 LI bnd       x16       0
 LI bnd       x17       0
 LI bnd       x18       0
 LI bnd       x19       0
 LI bnd       x20       0
 LI bnd       x21       0
 LI bnd       x22       0
 LI bnd       x23       0
 LI bnd       x24       0
 LI bnd       x25       0
 LI bnd       x26       0
 LI bnd       x27       0
 LI bnd       x28       0
 LI bnd       x29       0
 LI bnd       x30       0
 LI bnd       x31       0
 LI bnd       x32       0
 LI bnd       x33       0
 LI bnd       x34       0
 LI bnd       x35       0
 LI bnd       x36       0
 LI bnd       x37       0
 LI bnd       x38       0
 LI bnd       x39       0
 LI bnd       x40       0
 LI bnd       x41       0
 LI bnd       x42       0
 LI bnd       x43       0
 LI bnd       x44       0
 LI bnd       x45       0
 LI bnd       x46       0
 LI bnd       x47       0
 LI bnd       x48       0
 LI bnd       x49       0
 LI bnd       x50       0
 LI bnd       x51       0
 LI bnd       x52       0
 LI bnd       x53       0
 LI bnd       x54       0
 LI bnd       x55       0
 LI bnd       x56       0
 LI bnd       x57       0
 LI bnd       x58       0
 LI bnd       x59       0
 LI bnd       x60       0
ENDATA
